
Cover cuts applied:  126
Implied bound cuts applied:  5
Flow cuts applied:  20
Mixed integer rounding cuts applied:  12
Zero-half cuts applied:  1
Lift and project cuts applied:  1
Gomory fractional cuts applied:  2

Root node processing (before b&c):
  Real time             =    0.08 sec. (54.53 ticks)
Parallel b&c, 4 threads:
  Real time             =    0.16 sec. (125.28 ticks)
  Sync time (average)   =    0.02 sec.
  Wait time (average)   =    0.00 sec.
                          ------------
Total (root+branch&cut) =    0.24 sec. (179.81 ticks)
Version identifier: 12.10.0.0 | 2019-11-26 | 843d4de
CPXPARAM_MIP_Interval                            10
CPXPARAM_MIP_Tolerances_AbsMIPGap                0.98999999999999999
Tried aggregator 2 times.
MIP Presolve eliminated 10297 rows and 6789 columns.
MIP Presolve modified 1 coefficients.
Aggregator did 105 substitutions.
Reduced MIP has 375 rows, 366 columns, and 1347 nonzeros.
Reduced MIP has 160 binaries, 206 generals, 0 SOSs, and 0 indicators.
Presolve time = 0.01 sec. (8.45 ticks)
Probing fixed 0 vars, tightened 7 bounds.
Probing changed sense of 4 constraints.
Probing time = 0.00 sec. (0.08 ticks)
Tried aggregator 1 time.
Detecting symmetries...
MIP Presolve eliminated 7 rows and 6 columns.
MIP Presolve modified 9 coefficients.
Reduced MIP has 368 rows, 360 columns, and 1322 nonzeros.
Reduced MIP has 156 binaries, 204 generals, 0 SOSs, and 0 indicators.
Presolve time = 0.00 sec. (0.96 ticks)
Probing time = 0.00 sec. (0.07 ticks)
Clique table members: 12.
MIP emphasis: balance optimality and feasibility.
MIP search method: dynamic search.
Parallel mode: deterministic, using up to 4 threads.
Root relaxation solution time = 0.01 sec. (5.22 ticks)

        Nodes                                         Cuts/
   Node  Left     Objective  IInf  Best Integer    Best Bound    ItCnt     Gap

      0     0       39.3333    56                     39.3333      453         
      0     0       39.3333    56                    Cuts: 26      583         
      0     0       39.3333    56                    Cuts: 70      739         
      0     0       39.3333    56                  MIRcuts: 1      846         
      0     0       39.3249    56                    Cuts: 45      969         
      0     0       39.2895    56                    Cuts: 49     1058         
Detecting symmetries...
      0     0       39.2745    56                    Cuts: 69     1130         
      0     0       39.2697    56                    Cuts: 58     1208         
      0     0       39.2653    56                    Cuts: 55     1257         
      0     0       39.2496    56                    Cuts: 96     1349         
      0     0       39.2432    56                    Cuts: 66     1407         
      0     0       39.2375    56                    Cuts: 57     1470         
      0     0       39.2340    56                    Cuts: 51     1521         
*     0+    0                           38.0000       39.2340             3.25%
      0     0        cutoff             38.0000       38.0000     1521    0.00%
Elapsed time = 0.22 sec. (177.69 ticks, tree = 0.01 MB, solutions = 1)
the number of Nodes = 0
